1	3	1	1	3	10	0	0	0	0	0	0
800	1	0	0	0	0	0	0	0	0	0	0
100	1	0	78.63	0.49	1	0	0	0	0	0	0
100	1	0	78.63	0.49	1	0	0	0	0	0	0
100     1       0       78.63   0.49    1       0       0       0       0       0       0
50	150	0	0	0	0	230	0	0	99999	0	0
50	75	0	0	0	0	230	0	0	99999	0	0
50	75	0	0	0	0	230	0	0	0	0	0
15	42	0	0	0	0	230	0	0	0	0	0
21	22	0	0	0	0	230	0	0	0	0	0
35      35      0       0       0       0       230     0       0       0       0       0
15	19	1	1	0	203	213	10	0	0	0	0
11	31	7	2	5	212	222	10	0	0	0	0
37	31	14	12	2	116	331	10	0	0	0	0
20	40	12	6	6	116	320	10	0	0	0	0
35	40	16	14	2	289	299	10	0	0	0	0
55	54	26	26	0	116	308	10	0	0	0	0
14	37	11	4	7	116	314	10	0	0	0	0
6	38	16	3	13	116	306	10	0	0	0	0
45	30	17	11	6	116	324	10	0	0	0	0
10	20	19	10	9	187	197	10	0	0	0	0
